(set-info :Origin "This instance was generated by: BanditFuzz-- an RL fuzzer for SMT solvers" )
(set-info :Author "Joe Scott, Fed Mora, Vijay Ganesh" )
(set-info :Contact "Joe Scott, joseph.scott@uwaterloo.ca")
(set-logic QF_BV)
(declare-const bool_0 Bool)
(declare-const bool_1 Bool)
(declare-const bool_2 Bool)
(declare-const bool_3 Bool)
(declare-const bool_4 Bool)
(declare-const bv_0 (_ BitVec 32))
(declare-const bv_1 (_ BitVec 32))
(declare-const bv_2 (_ BitVec 32))
(declare-const bv_3 (_ BitVec 32))
(declare-const bv_4 (_ BitVec 32))
(assert (bvsle (bvmul (bvxor #xf9d10e01  bv_0) (bvnand #x9c5ce1aa  bv_0)) (bvashr (bvsrem #x40e1c867  bv_0) (bvnor bv_1 #x04b15396 ))))
(assert (and (bvugt (bvashr bv_4 bv_2) (bvsdiv bv_1 bv_3)) (bvsgt (bvor bv_0 #x3142a16b ) (bvurem bv_4 #x73f7b0e8 ))))
(assert (=> (bvsle (bvnand bv_0 #x733573be ) (bvsdiv #x10944fb8  bv_2)) (bvsge (bvnand #x76d00fe1  bv_4) (bvsub bv_2 bv_2))))
(assert (bvsgt (bvadd (bvlshr #x954432cc  bv_3) (bvsmod #xe6aeb259  bv_2)) (bvxor (bvsrem #x43e1aacb  #x70951ab0 ) (bvlshr #x339a0eaf  #x1bfd2df9 ))))
(assert (bvugt (bvmul (bvxnor #x88215269  bv_4) (bvor bv_2 #x662d87ce )) (bvsub (bvsdiv #x81c91c95  bv_4) (bvudiv #x045d5d19  bv_0))))
(check-sat)
(exit)
